20
2 1 6
4 0 1
5 0 2
5 1 8
5 2 8
5 3 12
6 4 7
7 2 9
7 4 16
8 3 3
8 4 11
8 5 11
9 0 14
9 1 8
9 4 3
9 8 20
10 0 11
10 3 12
10 7 17
11 2 7
12 7 5
12 11 11
13 0 15
13 5 8
13 6 20
13 8 15
13 10 12
14 4 16
14 8 14
14 9 8
15 0 18
15 4 13
15 9 20
15 14 18
16 0 14
16 2 10
16 3 17
16 7 2
16 13 12
16 15 4
17 0 18
17 3 8
17 4 18
17 5 12
17 9 13
17 10 9
17 13 4
17 15 12
18 2 18
18 10 5
18 12 13
18 14 2
18 15 15
18 17 7
19 1 19
19 4 19
19 5 11
19 9 20
19 10 10
19 18 20
